\ Model Routes
\ LP format - for model browsing. Use MPS format to capture full model detail.
Maximize
  - 191.7153353028244 R{0,0} + 623.2046552982704 R{0,1}
   + 623.2046552982704 R{0,2} - 249.2301939667805 R{0,3}
   + 234.7650315204939 R{0,4} + 397.2891588355392 R{0,5}
   + 568.2280287393723 R{0,6} + 434.1633846344188 R{0,7}
   + 701.4183128925243 R{0,8} + 1279.481267882351 R{0,9}
   + 1244.271171507061 R{0,10} + 1905.662356761875 R{0,11}
   + 1104.569803854375 R{0,12} + 1064.526601636367 R{0,13}
   + 1051.005604621308 R{0,14} + 908.4223970523112 R{0,15}
   + 1876.53152041942 R{0,16} + 1970.955446610297 R{0,17}
   + 1147.965181546722 R{0,18} + 1123.801071837498 R{0,19}
   + 820.0709822215376 R{0,20} + 1044.924651964269 R{0,21}
   + 383.7375153987751 R{0,22} + 568.2280287393723 R{0,23}
   + 899.3744968804001 R{0,24} + 1044.924651964269 R{0,25}
   + 1970.955446610297 R{0,26} + 1970.955446610297 R{0,27}
   - 256.140831891889 R{1,0} - 58.16416216887956 R{1,1}
   + 669.0062570112706 R{1,2} + 649.8984112003911 R{1,3}
   + 960.0288171142988 R{1,4} + 343.4583612143375 R{1,5}
   + 1149.761766145838 R{1,6} + 801.2254383072091 R{1,7}
   + 466.5314942212706 R{1,8} + 1975.970927278603 R{1,9}
   + 1213.609419700793 R{1,10} + 83.75750041859851 R{1,11}
   + 1730.369527518591 R{1,12} + 452.5704646763169 R{1,13}
   + 926.3484539220494 R{1,14} + 452.5704646763169 R{1,15}
   + 332.3724757400091 R{1,16} + 108.8448081293318 R{1,17}
   + 1433.407048949709 R{1,18} + 1430.741612729399 R{1,19}
   + 1422.161318654459 R{1,20} + 1208.010815369936 R{1,21}
   + 1201.258735335758 R{1,22} + 1244.837743351602 R{1,23}
   + 966.4962483187182 R{2,0} + 966.4962483187182 R{2,1}
   - 278.4443928850388 R{2,2} - 59.13410337035452 R{2,3}
   + 602.7748664658451 R{2,4} + 1100.505917706273 R{2,5}
   + 945.4785375966198 R{2,6} + 1427.808192454218 R{2,7}
   + 1408.884432491915 R{2,8} + 571.9901712135927 R{2,9}
   + 1680.70254266594 R{2,10} + 935.6827721606235 R{2,11}
   + 489.5488610060708 R{2,12} + 380.2424307492583 R{2,13}
   + 68.13575841901002 R{2,14} + 159.840728173772 R{2,15}
   + 1508.406321472934 R{2,16} + 698.9909365272829 R{2,17}
   + 541.7818528934409 R{2,18} + 676.5938265294189 R{2,19}
   + 1052.344532644779 R{2,20} + 1359.158321432696 R{2,21}
   + 591.0325885092791 R{2,22} - 44.40015797923422 R{2,23}
   + 1217.312270834014 R{2,24} + 361.3186707869554 R{2,25}
   + 1124.704006293605 R{2,26} + 1050.969751695431 R{2,27}
   + 676.5938265294189 R{2,28} + 1121.807768046337 R{2,29}
   + 947.5724883564153 R{2,30} + 1127.126554447374 R{2,31}
   + 465.2175846111744 R{2,32} + 541.7818528934409 R{2,33}
   + 1147.9003447007 R{2,34} + 465.2175846111744 R{2,35}
   + 933.1318446357045 R{2,36} + 1035.741747875394 R{2,37}
   - 260.2482995389823 R{3,0} + 630.4721973521264 R{3,1}
   + 998.4131606186559 R{3,2} + 1359.415877888776 R{3,3}
   + 675.8203609917092 R{3,4} + 1777.2923468436 R{3,5}
   + 2293.458945889421 R{3,6} + 823.2871704888992 R{3,7}
   + 1071.730778943859 R{3,8} + 947.3989837626477 R{3,9}
   + 948.0900821663924 R{3,10} + 724.3662644921812 R{3,11}
   + 1196.789014425637 R{3,12} + 1088.600552192382 R{3,13}
   + 1053.640931657272 R{3,14} + 1191.792578629825 R{3,15}
   + 2162.593341433103 R{3,16} + 1017.092412304983 R{3,17}
   + 490.6941533371742 R{3,18} + 867.9370823805161 R{3,19}
   + 720.6097390133408 R{3,20} + 1062.741130361876 R{3,21}
   + 443.9266593979985 R{3,22} + 917.1303854276507 R{3,23}
   + 892.0453286737661 R{3,24} + 329.8516281817518 R{3,25}
   + 1165.52568192382 R{3,26} + 1786.264459894365 R{3,27}
   + 657.7739276179145 R{3,28} + 837.470529738569 R{3,29}
   + 1408.371782154657 R{3,30} + 816.9775285207436 R{3,31}
   + 1065.994359368219 R{3,32} + 716.8661609888395 R{3,33}
   + 1395.621024498318 R{3,34} + 934.7742917056341 R{3,35}
   + 1402.622286521504 R{3,36} + 1254.158220718726 R{3,37}
   - 242.5208875955131 R{4,0} + 817.7894748373856 R{4,1}
   + 1338.413574514046 R{4,2} + 2712.727533335101 R{4,3}
   + 636.1946624570069 R{4,4} + 1573.360721222502 R{4,5}
   + 1252.903722545946 R{4,6} + 767.8453030564167 R{4,7}
   + 1773.527822222607 R{4,8} + 1313.434060185577 R{4,9}
   + 2242.905763064415 R{4,10} + 1474.355791807787 R{4,11}
   + 1036.58249094027 R{4,12} + 2329.622365451522 R{4,13}
   + 156.5678772582366 R{4,14} + 645.7011299475298 R{4,15}
   + 1995.382382102252 R{4,16} + 1054.484351000054 R{4,17}
   + 2068.023821157642 R{4,18} + 559.4861593631713 R{4,19}
   + 1474.355791807787 R{4,20} + 480.7186969194101 R{4,21}
   + 1043.735980039764 R{4,22} + 688.821921086456 R{4,23}
   + 1443.270825197773 R{4,24} + 1573.360721222502 R{4,25}
   + 329.1235468612163 R{4,26} + 2286.174410238122 R{4,27}
   + 1722.773821028947 R{4,28} + 1051.835061955412 R{4,29}
   + 1924.503326754156 R{4,30} + 329.1235468612163 R{4,31}
   + 1040.616532887361 R{4,32} + 856.3525642089687 R{4,33}
   + 1620.314442885878 R{4,34} + 1594.409825509065 R{4,35}
   + 645.7011299475298 R{4,36} + 874.1504081039841 R{4,37}
   - 231.9775664337766 R{5,0} + 40.49903117334031 R{5,1}
   + 364.0546919427258 R{5,2} + 464.8729849773447 R{5,3}
   + 464.8729849773447 R{5,4} + 417.2326556683767 R{5,5}
   + 417.2326556683767 R{5,6} + 371.0044955950956 R{5,7}
   + 371.0044955950956 R{5,8} + 371.0044955950956 R{5,9}
   + 373.1780564891149 R{5,10} + 320.2422120505296 R{5,11}
   + 417.2326556683767 R{5,12} + 371.0044955950956 R{5,13}
   + 172.1859927391987 R{5,14} + 320.2422120505296 R{5,15}
   + 85.69219966218441 R{5,16} + 320.2422120505296 R{5,17}
   + 417.2326556683767 R{5,18} - 231.1436095783099 R{6,0}
   + 120.1285528432641 R{6,1} + 1144.238169502638 R{6,2}
   + 1709.383530245978 R{6,3} + 1802.359235242259 R{6,4}
   + 1223.304364465718 R{6,5} + 2118.667374719875 R{6,6}
   + 2026.366671247895 R{6,7} + 3748.388575590705 R{6,8}
   + 520.8383476027567 R{6,9} + 1326.502922776423 R{6,10}
   + 2746.058047868933 R{6,11} + 1722.953294680647 R{6,12}
   + 496.2466339235806 R{6,13} + 1619.639381360134 R{6,14}
   + 1999.537105141576 R{6,15} + 1268.41997341975 R{6,16}
   + 584.5854722435263 R{6,17} + 1594.761946444504 R{6,18}
   + 1982.53943199 R{6,19} + 1223.304364465718 R{6,20}
   + 1851.712604856223 R{6,21} + 202.0493940262086 R{6,22}
   + 172.9841061466382 R{6,23} + 1765.509267279329 R{6,24}
   + 2325.247561662709 R{6,25} + 1409.799607828162 R{6,26}
   + 1222.5223621552 R{6,27} + 588.207947357007 R{6,28}
   + 588.207947357007 R{6,29} + 1155.416433556938 R{6,30}
   + 1359.907606471388 R{6,31} + 1421.140788485421 R{6,32}
   + 1289.855144846534 R{6,33} + 588.207947357007 R{6,34}
   - 57.01573356182757 R{6,35} + 1430.973439405642 R{6,36}
   + 1503.497606664703 R{6,37} - 86.08102144139798 R{6,38}
   + 1065.273264472315 R{6,39} - 57.01573356182757 R{6,40}
   + 1308.75524079662 R{6,41} + 768.0594408188072 R{6,42}
   + 2025.584668937377 R{6,43}
Subject To
 R00: R{0,0} <= 1
 R01: R{0,1} <= 1
 R02: R{0,2} <= 1
 R03: R{0,3} <= 1
 R04: R{0,4} <= 1
 R05: R{0,5} <= 1
 R06: R{0,6} <= 1
 R07: R{0,7} <= 1
 R08: R{0,8} <= 1
 R09: R{0,9} <= 1
 R010: R{0,10} <= 1
 R011: R{0,11} <= 1
 R012: R{0,12} <= 1
 R013: R{0,13} <= 1
 R014: R{0,14} <= 1
 R015: R{0,15} <= 1
 R016: R{0,16} <= 1
 R017: R{0,17} <= 1
 R018: R{0,18} <= 1
 R019: R{0,19} <= 1
 R020: R{0,20} <= 1
 R021: R{0,21} <= 1
 R022: R{0,22} <= 1
 R023: R{0,23} <= 1
 R024: R{0,24} <= 1
 R025: R{0,25} <= 1
 R026: R{0,26} <= 1
 R027: R{0,27} <= 1
 R028: R{1,0} <= 1
 R029: R{1,1} <= 1
 R030: R{1,2} <= 1
 R031: R{1,3} <= 1
 R032: R{1,4} <= 1
 R033: R{1,5} <= 1
 R034: R{1,6} <= 1
 R035: R{1,7} <= 1
 R036: R{1,8} <= 1
 R037: R{1,9} <= 1
 R038: R{1,10} <= 1
 R039: R{1,11} <= 1
 R040: R{1,12} <= 1
 R041: R{1,13} <= 1
 R042: R{1,14} <= 1
 R043: R{1,15} <= 1
 R044: R{1,16} <= 1
 R045: R{1,17} <= 1
 R046: R{1,18} <= 1
 R047: R{1,19} <= 1
 R048: R{1,20} <= 1
 R049: R{1,21} <= 1
 R050: R{1,22} <= 1
 R051: R{1,23} <= 1
 R052: R{2,0} <= 1
 R053: R{2,1} <= 1
 R054: R{2,2} <= 1
 R055: R{2,3} <= 1
 R056: R{2,4} <= 1
 R057: R{2,5} <= 1
 R058: R{2,6} <= 1
 R059: R{2,7} <= 1
 R060: R{2,8} <= 1
 R061: R{2,9} <= 1
 R062: R{2,10} <= 1
 R063: R{2,11} <= 1
 R064: R{2,12} <= 1
 R065: R{2,13} <= 1
 R066: R{2,14} <= 1
 R067: R{2,15} <= 1
 R068: R{2,16} <= 1
 R069: R{2,17} <= 1
 R070: R{2,18} <= 1
 R071: R{2,19} <= 1
 R072: R{2,20} <= 1
 R073: R{2,21} <= 1
 R074: R{2,22} <= 1
 R075: R{2,23} <= 1
 R076: R{2,24} <= 1
 R077: R{2,25} <= 1
 R078: R{2,26} <= 1
 R079: R{2,27} <= 1
 R080: R{2,28} <= 1
 R081: R{2,29} <= 1
 R082: R{2,30} <= 1
 R083: R{2,31} <= 1
 R084: R{2,32} <= 1
 R085: R{2,33} <= 1
 R086: R{2,34} <= 1
 R087: R{2,35} <= 1
 R088: R{2,36} <= 1
 R089: R{2,37} <= 1
 R090: R{3,0} <= 1
 R091: R{3,1} <= 1
 R092: R{3,2} <= 1
 R093: R{3,3} <= 1
 R094: R{3,4} <= 1
 R095: R{3,5} <= 1
 R096: R{3,6} <= 1
 R097: R{3,7} <= 1
 R098: R{3,8} <= 1
 R099: R{3,9} <= 1
 R0100: R{3,10} <= 1
 R0101: R{3,11} <= 1
 R0102: R{3,12} <= 1
 R0103: R{3,13} <= 1
 R0104: R{3,14} <= 1
 R0105: R{3,15} <= 1
 R0106: R{3,16} <= 1
 R0107: R{3,17} <= 1
 R0108: R{3,18} <= 1
 R0109: R{3,19} <= 1
 R0110: R{3,20} <= 1
 R0111: R{3,21} <= 1
 R0112: R{3,22} <= 1
 R0113: R{3,23} <= 1
 R0114: R{3,24} <= 1
 R0115: R{3,25} <= 1
 R0116: R{3,26} <= 1
 R0117: R{3,27} <= 1
 R0118: R{3,28} <= 1
 R0119: R{3,29} <= 1
 R0120: R{3,30} <= 1
 R0121: R{3,31} <= 1
 R0122: R{3,32} <= 1
 R0123: R{3,33} <= 1
 R0124: R{3,34} <= 1
 R0125: R{3,35} <= 1
 R0126: R{3,36} <= 1
 R0127: R{3,37} <= 1
 R0128: R{4,0} <= 1
 R0129: R{4,1} <= 1
 R0130: R{4,2} <= 1
 R0131: R{4,3} <= 1
 R0132: R{4,4} <= 1
 R0133: R{4,5} <= 1
 R0134: R{4,6} <= 1
 R0135: R{4,7} <= 1
 R0136: R{4,8} <= 1
 R0137: R{4,9} <= 1
 R0138: R{4,10} <= 1
 R0139: R{4,11} <= 1
 R0140: R{4,12} <= 1
 R0141: R{4,13} <= 1
 R0142: R{4,14} <= 1
 R0143: R{4,15} <= 1
 R0144: R{4,16} <= 1
 R0145: R{4,17} <= 1
 R0146: R{4,18} <= 1
 R0147: R{4,19} <= 1
 R0148: R{4,20} <= 1
 R0149: R{4,21} <= 1
 R0150: R{4,22} <= 1
 R0151: R{4,23} <= 1
 R0152: R{4,24} <= 1
 R0153: R{4,25} <= 1
 R0154: R{4,26} <= 1
 R0155: R{4,27} <= 1
 R0156: R{4,28} <= 1
 R0157: R{4,29} <= 1
 R0158: R{4,30} <= 1
 R0159: R{4,31} <= 1
 R0160: R{4,32} <= 1
 R0161: R{4,33} <= 1
 R0162: R{4,34} <= 1
 R0163: R{4,35} <= 1
 R0164: R{4,36} <= 1
 R0165: R{4,37} <= 1
 R0166: R{5,0} <= 1
 R0167: R{5,1} <= 1
 R0168: R{5,2} <= 1
 R0169: R{5,3} <= 1
 R0170: R{5,4} <= 1
 R0171: R{5,5} <= 1
 R0172: R{5,6} <= 1
 R0173: R{5,7} <= 1
 R0174: R{5,8} <= 1
 R0175: R{5,9} <= 1
 R0176: R{5,10} <= 1
 R0177: R{5,11} <= 1
 R0178: R{5,12} <= 1
 R0179: R{5,13} <= 1
 R0180: R{5,14} <= 1
 R0181: R{5,15} <= 1
 R0182: R{5,16} <= 1
 R0183: R{5,17} <= 1
 R0184: R{5,18} <= 1
 R0185: R{6,0} <= 1
 R0186: R{6,1} <= 1
 R0187: R{6,2} <= 1
 R0188: R{6,3} <= 1
 R0189: R{6,4} <= 1
 R0190: R{6,5} <= 1
 R0191: R{6,6} <= 1
 R0192: R{6,7} <= 1
 R0193: R{6,8} <= 1
 R0194: R{6,9} <= 1
 R0195: R{6,10} <= 1
 R0196: R{6,11} <= 1
 R0197: R{6,12} <= 1
 R0198: R{6,13} <= 1
 R0199: R{6,14} <= 1
 R0200: R{6,15} <= 1
 R0201: R{6,16} <= 1
 R0202: R{6,17} <= 1
 R0203: R{6,18} <= 1
 R0204: R{6,19} <= 1
 R0205: R{6,20} <= 1
 R0206: R{6,21} <= 1
 R0207: R{6,22} <= 1
 R0208: R{6,23} <= 1
 R0209: R{6,24} <= 1
 R0210: R{6,25} <= 1
 R0211: R{6,26} <= 1
 R0212: R{6,27} <= 1
 R0213: R{6,28} <= 1
 R0214: R{6,29} <= 1
 R0215: R{6,30} <= 1
 R0216: R{6,31} <= 1
 R0217: R{6,32} <= 1
 R0218: R{6,33} <= 1
 R0219: R{6,34} <= 1
 R0220: R{6,35} <= 1
 R0221: R{6,36} <= 1
 R0222: R{6,37} <= 1
 R0223: R{6,38} <= 1
 R0224: R{6,39} <= 1
 R0225: R{6,40} <= 1
 R0226: R{6,41} <= 1
 R0227: R{6,42} <= 1
 R0228: R{6,43} <= 1
 R1_0: R{0,0} + R{0,1} + R{0,2} + R{0,3} + R{0,4} + R{0,5} + R{0,6}
   + R{0,7} + R{0,8} + R{0,9} + R{0,10} + R{0,11} + R{0,12} + R{0,13}
   + R{0,14} + R{0,15} + R{0,16} + R{0,17} + R{0,18} + R{0,19} + R{0,20}
   + R{0,21} + R{0,22} + R{0,23} + R{0,24} + R{0,25} + R{0,26} + R{0,27}
   <= 1
 R1_1: R{1,0} + R{1,1} + R{1,2} + R{1,3} + R{1,4} + R{1,5} + R{1,6}
   + R{1,7} + R{1,8} + R{1,9} + R{1,10} + R{1,11} + R{1,12} + R{1,13}
   + R{1,14} + R{1,15} + R{1,16} + R{1,17} + R{1,18} + R{1,19} + R{1,20}
   + R{1,21} + R{1,22} + R{1,23} <= 1
 R1_2: R{2,0} + R{2,1} + R{2,2} + R{2,3} + R{2,4} + R{2,5} + R{2,6}
   + R{2,7} + R{2,8} + R{2,9} + R{2,10} + R{2,11} + R{2,12} + R{2,13}
   + R{2,14} + R{2,15} + R{2,16} + R{2,17} + R{2,18} + R{2,19} + R{2,20}
   + R{2,21} + R{2,22} + R{2,23} + R{2,24} + R{2,25} + R{2,26} + R{2,27}
   + R{2,28} + R{2,29} + R{2,30} + R{2,31} + R{2,32} + R{2,33} + R{2,34}
   + R{2,35} + R{2,36} + R{2,37} <= 1
 R1_3: R{3,0} + R{3,1} + R{3,2} + R{3,3} + R{3,4} + R{3,5} + R{3,6}
   + R{3,7} + R{3,8} + R{3,9} + R{3,10} + R{3,11} + R{3,12} + R{3,13}
   + R{3,14} + R{3,15} + R{3,16} + R{3,17} + R{3,18} + R{3,19} + R{3,20}
   + R{3,21} + R{3,22} + R{3,23} + R{3,24} + R{3,25} + R{3,26} + R{3,27}
   + R{3,28} + R{3,29} + R{3,30} + R{3,31} + R{3,32} + R{3,33} + R{3,34}
   + R{3,35} + R{3,36} + R{3,37} <= 1
 R1_4: R{4,0} + R{4,1} + R{4,2} + R{4,3} + R{4,4} + R{4,5} + R{4,6}
   + R{4,7} + R{4,8} + R{4,9} + R{4,10} + R{4,11} + R{4,12} + R{4,13}
   + R{4,14} + R{4,15} + R{4,16} + R{4,17} + R{4,18} + R{4,19} + R{4,20}
   + R{4,21} + R{4,22} + R{4,23} + R{4,24} + R{4,25} + R{4,26} + R{4,27}
   + R{4,28} + R{4,29} + R{4,30} + R{4,31} + R{4,32} + R{4,33} + R{4,34}
   + R{4,35} + R{4,36} + R{4,37} <= 1
 R1_5: R{5,0} + R{5,1} + R{5,2} + R{5,3} + R{5,4} + R{5,5} + R{5,6}
   + R{5,7} + R{5,8} + R{5,9} + R{5,10} + R{5,11} + R{5,12} + R{5,13}
   + R{5,14} + R{5,15} + R{5,16} + R{5,17} + R{5,18} <= 1
 R1_6: R{6,0} + R{6,1} + R{6,2} + R{6,3} + R{6,4} + R{6,5} + R{6,6}
   + R{6,7} + R{6,8} + R{6,9} + R{6,10} + R{6,11} + R{6,12} + R{6,13}
   + R{6,14} + R{6,15} + R{6,16} + R{6,17} + R{6,18} + R{6,19} + R{6,20}
   + R{6,21} + R{6,22} + R{6,23} + R{6,24} + R{6,25} + R{6,26} + R{6,27}
   + R{6,28} + R{6,29} + R{6,30} + R{6,31} + R{6,32} + R{6,33} + R{6,34}
   + R{6,35} + R{6,36} + R{6,37} + R{6,38} + R{6,39} + R{6,40} + R{6,41}
   + R{6,42} + R{6,43} <= 1
 R2_0: 7 R{0,11} + 7 R{0,12} + 7 R{0,13} + 7 R{0,15} + 7 R{0,16}
   + 7 R{0,17} + 7 R{0,21} + 7 R{0,22} + 7 R{0,24} + 7 R{0,25} + 7 R{0,26}
   + 7 R{0,27} + 7 R{1,9} + 7 R{1,10} + 7 R{1,12} + 7 R{1,20} + 7 R{1,22}
   + 7 R{1,23} + 7 R{2,17} + 7 R{2,29} + 7 R{6,11} + 7 R{6,19} + 7 R{6,25}
   <= 7
 R2_1: <= 10
 R2_2: <= 0
 R2_3: 4 R{0,16} + 4 R{0,17} + 4 R{0,26} + 4 R{0,27} + 4 R{1,3} + 4 R{1,6}
   + 4 R{1,8} + 4 R{1,13} + 4 R{1,15} + 4 R{1,17} + 4 R{1,18} + 4 R{5,1}
   + 4 R{5,2} + 4 R{5,3} + 4 R{5,4} + 4 R{5,5} + 4 R{5,6} + 4 R{5,7}
   + 4 R{5,8} + 4 R{5,9} + 4 R{5,10} + 4 R{5,12} + 4 R{5,13} + 4 R{5,14}
   + 4 R{5,16} + 4 R{5,18} <= 4
 R2_4: <= 0
 R2_5: 5 R{5,1} + 5 R{5,2} + 5 R{5,3} + 5 R{5,4} + 5 R{5,10} + 5 R{5,16}
   <= 5
 R2_6: 10 R{0,8} + 10 R{0,9} + 10 R{0,10} + 10 R{0,14} + 10 R{0,17}
   + 10 R{0,19} + 10 R{0,26} + 10 R{0,27} + 10 R{1,4} + 10 R{1,5}
   + 10 R{1,14} + 10 R{1,17} + 10 R{1,18} + 10 R{6,1} + 10 R{6,2}
   + 10 R{6,3} + 10 R{6,4} + 10 R{6,5} + 10 R{6,7} + 10 R{6,8} + 10 R{6,9}
   + 10 R{6,10} + 10 R{6,12} + 10 R{6,14} + 10 R{6,15} + 10 R{6,17}
   + 10 R{6,18} + 10 R{6,20} + 10 R{6,22} + 10 R{6,23} + 10 R{6,24}
   + 10 R{6,26} + 10 R{6,27} + 10 R{6,28} + 10 R{6,29} + 10 R{6,30}
   + 10 R{6,32} + 10 R{6,34} + 10 R{6,36} + 10 R{6,43} <= 10
 R2_7: <= 0
 R2_8: <= 0
 R2_9: 12 R{4,1} + 12 R{4,2} + 12 R{4,3} + 12 R{4,5} + 12 R{4,6}
   + 12 R{4,7} + 12 R{4,8} + 12 R{4,9} + 12 R{4,10} + 12 R{4,11}
   + 12 R{4,12} + 12 R{4,13} + 12 R{4,14} + 12 R{4,15} + 12 R{4,16}
   + 12 R{4,17} + 12 R{4,18} + 12 R{4,19} + 12 R{4,20} + 12 R{4,21}
   + 12 R{4,22} + 12 R{4,23} + 12 R{4,24} + 12 R{4,25} + 12 R{4,26}
   + 12 R{4,27} + 12 R{4,28} + 12 R{4,29} + 12 R{4,30} + 12 R{4,31}
   + 12 R{4,32} + 12 R{4,33} + 12 R{4,34} + 12 R{4,35} + 12 R{4,36}
   + 12 R{4,37} <= 12
 R2_10: 8 R{1,11} + 8 R{2,17} + 8 R{3,5} + 8 R{3,6} + 8 R{3,13} + 8 R{3,16}
   + 8 R{3,20} + 8 R{3,27} + 8 R{3,30} + 8 R{3,33} + 8 R{3,36} + 8 R{3,37}
   + 8 R{6,1} + 8 R{6,2} + 8 R{6,3} + 8 R{6,4} + 8 R{6,5} + 8 R{6,6}
   + 8 R{6,7} + 8 R{6,10} + 8 R{6,12} + 8 R{6,13} + 8 R{6,14} + 8 R{6,15}
   + 8 R{6,17} + 8 R{6,18} + 8 R{6,20} + 8 R{6,21} + 8 R{6,22} + 8 R{6,24}
   + 8 R{6,25} + 8 R{6,26} + 8 R{6,27} + 8 R{6,28} + 8 R{6,29} + 8 R{6,30}
   + 8 R{6,31} + 8 R{6,32} + 8 R{6,33} + 8 R{6,34} + 8 R{6,35} + 8 R{6,36}
   + 8 R{6,37} + 8 R{6,39} + 8 R{6,40} + 8 R{6,41} + 8 R{6,42} + 8 R{6,43}
   <= 8
 R2_11: 15 R{0,16} + 15 R{0,17} + 15 R{0,26} + 15 R{0,27} + 15 R{4,18}
   + 15 R{4,27} + 15 R{4,28} <= 15
 R2_12: <= 0
 R2_13: 8 R{2,6} + 8 R{2,9} + 8 R{2,17} <= 8
 R2_14: <= 0
 R2_15: 11 R{0,0} + 11 R{0,1} + 11 R{0,2} + 11 R{0,11} + 11 R{0,12}
   + 11 R{0,13} + 11 R{4,1} + 11 R{4,2} + 11 R{4,6} + 11 R{4,8} + 11 R{4,9}
   + 11 R{4,21} + 11 R{4,33} + 11 R{4,37} <= 11
 R2_16: 5 R{2,7} + 5 R{2,8} + 5 R{2,10} + 5 R{2,11} + 5 R{2,19} + 5 R{2,20}
   + 5 R{2,24} + 5 R{2,27} + 5 R{2,28} + 5 R{2,37} + 5 R{4,14} + 5 R{4,17}
   + 5 R{4,28} + 5 R{6,6} + 5 R{6,7} + 5 R{6,8} + 5 R{6,11} + 5 R{6,19}
   + 5 R{6,43} <= 5
 R2_17: 11 R{1,9} + 11 R{1,10} + 11 R{1,12} + 11 R{1,19} + 11 R{1,20}
   + 11 R{1,21} + 11 R{1,22} + 11 R{1,23} + 11 R{6,4} + 11 R{6,8}
   + 11 R{6,11} + 11 R{6,19} + 11 R{6,25} <= 11
 R2_18: <= 0
 R2_19: 11 R{0,18} + 11 R{1,3} + 11 R{1,6} + 11 R{1,8} + 11 R{1,10}
   + 11 R{1,13} + 11 R{1,15} + 11 R{1,16} + 11 R{3,6} + 11 R{3,13}
   + 11 R{4,1} + 11 R{4,2} + 11 R{4,3} + 11 R{4,5} + 11 R{4,6} + 11 R{4,8}
   + 11 R{4,10} + 11 R{4,11} + 11 R{4,12} + 11 R{4,16} + 11 R{4,18}
   + 11 R{4,20} + 11 R{4,22} + 11 R{4,23} + 11 R{4,25} + 11 R{4,27}
   + 11 R{4,28} + 11 R{4,29} + 11 R{4,32} + 11 R{4,33} + 11 R{4,35}
   + 11 R{6,11} + 11 R{6,13} + 11 R{6,25} <= 11
 R2_20: 13 R{0,5} + 13 R{2,5} + 13 R{2,31} + 13 R{2,32} + 13 R{2,35}
   + 13 R{3,1} + 13 R{3,2} + 13 R{3,3} + 13 R{3,4} + 13 R{3,7} + 13 R{3,8}
   + 13 R{3,9} + 13 R{3,10} + 13 R{3,12} + 13 R{3,15} + 13 R{3,17}
   + 13 R{3,19} + 13 R{3,21} + 13 R{3,22} + 13 R{3,23} + 13 R{3,24}
   + 13 R{3,26} + 13 R{3,28} + 13 R{3,29} + 13 R{3,31} + 13 R{3,32}
   + 13 R{3,34} + 13 R{3,35} + 13 R{5,2} + 13 R{5,10} <= 13
 R2_21: <= 0
 R2_22: 10 R{1,9} + 10 R{1,10} + 10 R{1,12} + 10 R{1,19} + 10 R{1,20}
   + 10 R{1,21} + 10 R{1,22} + 10 R{1,23} + 10 R{2,24} + 10 R{2,36}
   + 10 R{4,13} + 10 R{4,30} <= 10
 R2_23: 14 R{0,1} + 14 R{0,2} + 14 R{0,6} + 14 R{0,23} + 14 R{2,0}
   + 14 R{2,1} + 14 R{2,6} + 14 R{2,9} + 14 R{2,18} + 14 R{2,22}
   + 14 R{2,30} + 14 R{2,33} + 14 R{3,6} + 14 R{3,20} + 14 R{3,27}
   + 14 R{3,33} + 14 R{3,36} + 14 R{4,3} + 14 R{4,5} + 14 R{4,7}
   + 14 R{4,10} + 14 R{4,19} + 14 R{4,24} + 14 R{4,25} + 14 R{4,34}
   + 14 R{4,35} + 14 R{6,2} + 14 R{6,3} + 14 R{6,5} + 14 R{6,7}
   + 14 R{6,14} + 14 R{6,15} + 14 R{6,20} + 14 R{6,24} + 14 R{6,27}
   + 14 R{6,31} + 14 R{6,32} + 14 R{6,36} + 14 R{6,37} + 14 R{6,42}
   + 14 R{6,43} <= 14
 R2_24: 10 R{0,11} + 10 R{0,13} + 10 R{0,16} + 10 R{0,17} + 10 R{0,26}
   + 10 R{0,27} + 10 R{1,19} + 10 R{1,20} + 10 R{1,21} + 10 R{1,22}
   + 10 R{1,23} + 10 R{3,1} + 10 R{3,2} + 10 R{3,3} + 10 R{3,8}
   + 10 R{3,10} + 10 R{3,13} + 10 R{3,15} + 10 R{3,18} + 10 R{3,21}
   + 10 R{3,23} + 10 R{3,24} + 10 R{3,25} + 10 R{3,32} + 10 R{3,35}
   + 10 R{4,3} + 10 R{4,10} + 10 R{4,16} + 10 R{4,18} + 10 R{4,24}
   + 10 R{4,27} + 10 R{4,28} + 10 R{4,35} + 10 R{6,21} + 10 R{6,26} <= 10
 R2_25: <= 13
 R2_26: 6 R{0,9} + 6 R{0,10} + 6 R{0,16} + 6 R{1,1} + 6 R{1,2} + 6 R{1,3}
   + 6 R{1,4} + 6 R{1,6} + 6 R{1,7} + 6 R{1,8} + 6 R{1,9} + 6 R{1,12}
   + 6 R{1,14} + 6 R{1,16} + 6 R{1,18} + 6 R{1,19} + 6 R{1,20} + 6 R{3,11}
   + 6 R{3,21} + 6 R{4,13} + 6 R{4,18} + 6 R{4,30} + 6 R{5,14} + 6 R{6,11}
   + 6 R{6,19} + 6 R{6,25} <= 6
 R2_27: 5 R{0,19} + 5 R{1,9} + 5 R{1,12} + 5 R{1,18} + 5 R{1,20}
   + 5 R{1,22} + 5 R{1,23} + 5 R{2,16} + 5 R{2,34} + 5 R{3,4} + 5 R{3,14}
   + 5 R{3,17} + 5 R{3,19} + 5 R{3,26} + 5 R{3,28} + 5 R{3,34} + 5 R{4,3}
   + 5 R{4,10} + 5 R{4,13} + 5 R{4,17} + 5 R{4,27} + 5 R{5,3} + 5 R{5,4}
   + 5 R{5,5} + 5 R{5,6} + 5 R{5,7} + 5 R{5,8} + 5 R{5,9} + 5 R{5,11}
   + 5 R{5,12} + 5 R{5,13} + 5 R{5,15} + 5 R{5,17} + 5 R{5,18} + 5 R{6,4}
   + 5 R{6,8} + 5 R{6,11} + 5 R{6,14} + 5 R{6,15} + 5 R{6,17} + 5 R{6,18}
   + 5 R{6,19} + 5 R{6,25} + 5 R{6,28} + 5 R{6,29} + 5 R{6,32} + 5 R{6,34}
   + 5 R{6,36} + 5 R{6,41} <= 5
 R2_28: <= 0
 R2_29: <= 0
 R2_30: <= 0
 R2_31: 6 R{6,1} + 6 R{6,2} + 6 R{6,5} + 6 R{6,9} + 6 R{6,13} + 6 R{6,17}
   + 6 R{6,20} + 6 R{6,22} + 6 R{6,23} + 6 R{6,27} + 6 R{6,28} + 6 R{6,29}
   + 6 R{6,31} + 6 R{6,32} + 6 R{6,34} + 6 R{6,35} + 6 R{6,36} + 6 R{6,38}
   + 6 R{6,40} + 6 R{6,42} <= 6
 R2_32: 7 R{0,4} + 7 R{0,5} + 7 R{0,16} + 7 R{0,17} + 7 R{0,26} + 7 R{0,27}
   + 7 R{1,9} + 7 R{1,10} + 7 R{1,12} + 7 R{3,14} + 7 R{3,18} + 7 R{4,13}
   + 7 R{4,30} <= 7
 R2_33: 12 R{3,14} + 12 R{3,15} + 12 R{3,18} + 12 R{3,25} <= 12
 R2_34: 5 R{2,10} + 5 R{4,3} + 5 R{4,10} + 5 R{4,11} + 5 R{4,13}
   + 5 R{4,16} + 5 R{4,18} + 5 R{4,20} + 5 R{4,22} + 5 R{4,27} + 5 R{4,28}
   + 5 R{4,29} + 5 R{4,30} + 5 R{4,32} + 5 R{6,6} + 5 R{6,11} + 5 R{6,19}
   + 5 R{6,25} <= 5
 R2_35: 13 R{0,22} + 13 R{0,24} <= 13
 R2_36: <= 0
 R2_37: 5 R{0,16} + 5 R{0,17} + 5 R{0,26} + 5 R{0,27} + 5 R{1,9}
   + 5 R{1,12} + 5 R{1,19} + 5 R{1,20} + 5 R{1,21} + 5 R{1,22} + 5 R{1,23}
   + 5 R{5,1} + 5 R{5,3} + 5 R{5,4} + 5 R{5,5} + 5 R{5,6} + 5 R{5,7}
   + 5 R{5,8} + 5 R{5,9} + 5 R{5,11} + 5 R{5,12} + 5 R{5,13} + 5 R{5,14}
   + 5 R{5,15} + 5 R{5,16} + 5 R{5,17} + 5 R{5,18} <= 5
 R2_38: <= 0
 R2_39: <= 0
 R2_40: 15 R{0,10} + 15 R{0,14} + 15 R{0,18} + 15 R{1,7} + 15 R{1,9}
   + 15 R{1,10} + 15 R{1,12} + 15 R{1,19} + 15 R{1,20} + 15 R{1,21}
   + 15 R{1,22} + 15 R{1,23} + 15 R{2,3} + 15 R{2,4} + 15 R{2,5}
   + 15 R{2,31} + 15 R{2,32} + 15 R{2,35} + 15 R{4,13} + 15 R{4,30} <= 15
 R2_41: 5 R{0,11} + 5 R{0,12} + 5 R{0,13} + 5 R{0,15} + 5 R{0,16}
   + 5 R{0,17} + 5 R{0,21} + 5 R{0,24} + 5 R{0,25} + 5 R{0,26} + 5 R{0,27}
   + 5 R{2,6} + 5 R{2,10} + 5 R{2,12} + 5 R{2,16} + 5 R{2,17} + 5 R{2,34}
   + 5 R{2,37} + 5 R{3,2} + 5 R{3,3} + 5 R{3,7} + 5 R{3,16} + 5 R{3,31}
   + 5 R{4,3} + 5 R{4,11} + 5 R{4,16} + 5 R{4,18} + 5 R{4,20} + 5 R{4,27}
   + 5 R{4,29} + 5 R{4,34} + 5 R{6,5} + 5 R{6,8} + 5 R{6,10} + 5 R{6,12}
   + 5 R{6,16} + 5 R{6,20} + 5 R{6,26} + 5 R{6,27} + 5 R{6,30} + 5 R{6,31}
   + 5 R{6,32} + 5 R{6,33} + 5 R{6,36} + 5 R{6,39} + 5 R{6,41} + 5 R{6,42}
   <= 5
 R2_42: 4 R{2,3} + 4 R{2,4} + 4 R{2,5} + 4 R{2,31} + 4 R{2,32} + 4 R{2,35}
   <= 4
 R2_43: <= 0
 R2_44: <= 0
 R2_45: <= 0
 R2_46: 9 R{2,7} + 9 R{2,8} + 9 R{2,10} + 9 R{2,11} + 9 R{2,16} + 9 R{2,19}
   + 9 R{2,20} + 9 R{2,21} + 9 R{2,24} + 9 R{2,26} + 9 R{2,27} + 9 R{2,28}
   + 9 R{2,29} + 9 R{2,34} + 9 R{2,36} + 9 R{2,37} + 9 R{3,5} + 9 R{3,16}
   + 9 R{3,30} + 9 R{3,37} + 9 R{4,4} + 9 R{4,12} + 9 R{4,13} + 9 R{4,16}
   + 9 R{4,30} + 9 R{6,6} + 9 R{6,8} + 9 R{6,21} <= 9
 R2_47: 7 R{1,1} + 7 R{1,2} + 7 R{1,4} + 7 R{3,34} <= 7
 R2_48: 4 R{0,11} + 4 R{2,21} + 4 R{2,29} + 4 R{4,1} + 4 R{4,2} + 4 R{4,3}
   + 4 R{4,5} + 4 R{4,6} + 4 R{4,7} + 4 R{4,8} + 4 R{4,9} + 4 R{4,10}
   + 4 R{4,12} + 4 R{4,15} + 4 R{4,21} + 4 R{4,23} + 4 R{4,24} + 4 R{4,25}
   + 4 R{4,26} + 4 R{4,31} + 4 R{4,33} + 4 R{4,34} + 4 R{4,35} + 4 R{4,36}
   + 4 R{4,37} + 4 R{6,11} + 4 R{6,19} + 4 R{6,25} <= 4
 R2_49: <= 0
 R2_50: <= 0
 R2_51: 11 R{3,13} + 11 R{4,10} + 11 R{4,18} + 11 R{4,27} + 11 R{4,28}
   <= 11
 R2_52: 10 R{4,4} + 10 R{4,17} <= 10
 R2_53: 13 R{4,1} + 13 R{4,2} + 13 R{4,5} + 13 R{4,6} + 13 R{4,7}
   + 13 R{4,8} + 13 R{4,12} + 13 R{4,14} + 13 R{4,19} + 13 R{4,21}
   + 13 R{4,23} + 13 R{4,24} + 13 R{4,25} + 13 R{4,26} + 13 R{4,31}
   + 13 R{4,33} + 13 R{4,34} + 13 R{4,35} + 13 R{4,37} <= 13
 R2_54: 9 R{3,1} + 9 R{3,2} + 9 R{3,3} + 9 R{3,4} + 9 R{3,5} + 9 R{3,6}
   + 9 R{3,7} + 9 R{3,8} + 9 R{3,9} + 9 R{3,10} + 9 R{3,11} + 9 R{3,15}
   + 9 R{3,16} + 9 R{3,17} + 9 R{3,19} + 9 R{3,20} + 9 R{3,21} + 9 R{3,22}
   + 9 R{3,23} + 9 R{3,24} + 9 R{3,26} + 9 R{3,27} + 9 R{3,28} + 9 R{3,30}
   + 9 R{3,31} + 9 R{3,32} + 9 R{3,33} + 9 R{3,34} + 9 R{3,36} + 9 R{3,37}
   <= 9
 R2_55: 8 R{3,34} <= 8
 R2_56: 6 R{1,9} + 6 R{1,12} + 6 R{1,19} + 6 R{1,21} + 6 R{2,0} + 6 R{2,1}
   + 6 R{2,7} + 6 R{2,8} + 6 R{2,10} + 6 R{2,12} + 6 R{2,13} + 6 R{2,15}
   + 6 R{2,16} + 6 R{2,21} + 6 R{2,25} + 6 R{2,26} + 6 R{2,27} + 6 R{2,30}
   + 6 R{3,5} + 6 R{3,6} + 6 R{3,14} + 6 R{3,16} + 6 R{3,20} + 6 R{3,27}
   + 6 R{3,30} + 6 R{3,33} + 6 R{3,36} + 6 R{3,37} + 6 R{4,6} + 6 R{4,8}
   + 6 R{4,9} + 6 R{4,11} + 6 R{4,13} + 6 R{4,15} + 6 R{4,17} + 6 R{4,20}
   + 6 R{4,22} + 6 R{4,30} + 6 R{4,32} + 6 R{4,36} + 6 R{4,37} + 6 R{6,2}
   + 6 R{6,3} + 6 R{6,4} + 6 R{6,6} + 6 R{6,8} + 6 R{6,12} + 6 R{6,18}
   + 6 R{6,21} + 6 R{6,24} + 6 R{6,31} + 6 R{6,33} + 6 R{6,37} <= 6
 R2_57: <= 0
 R2_58: 15 R{3,34} <= 15
 R2_59: 10 R{0,11} + 10 R{0,12} + 10 R{0,15} + 10 R{0,21} + 10 R{0,22}
   + 10 R{0,24} + 10 R{0,25} + 10 R{1,11} + 10 R{2,11} + 10 R{3,10}
   + 10 R{3,13} + 10 R{4,3} + 10 R{4,5} + 10 R{4,10} + 10 R{4,16}
   + 10 R{4,18} + 10 R{4,24} + 10 R{4,25} + 10 R{4,27} + 10 R{4,28}
   + 10 R{4,34} + 10 R{4,35} <= 10
 R2_60: 13 R{0,16} + 13 R{0,17} + 13 R{0,26} + 13 R{0,27} <= 13
 R2_61: 9 R{2,7} + 9 R{2,8} + 9 R{2,10} + 9 R{2,11} + 9 R{2,13} + 9 R{2,16}
   + 9 R{2,19} + 9 R{2,20} + 9 R{2,21} + 9 R{2,23} + 9 R{2,24} + 9 R{2,25}
   + 9 R{2,26} + 9 R{2,27} + 9 R{2,28} + 9 R{2,29} + 9 R{2,34} + 9 R{2,36}
   + 9 R{2,37} + 9 R{6,8} + 9 R{6,11} + 9 R{6,16} + 9 R{6,19} + 9 R{6,25}
   <= 9
 R2_62: <= 0
 R2_63: <= 0
 R2_64: <= 0
 R2_65: <= 5
 R2_66: 7 R{0,9} + 7 R{0,10} + 7 R{0,11} + 7 R{0,12} + 7 R{0,13}
   + 7 R{0,14} + 7 R{0,18} + 7 R{0,20} + 7 R{0,21} + 7 R{0,24} + 7 R{0,25}
   + 7 R{3,14} + 7 R{3,18} + 7 R{3,25} + 7 R{6,8} + 7 R{6,11} + 7 R{6,19}
   + 7 R{6,25} <= 7
 R2_67: 3 R{0,1} + 3 R{0,2} + 3 R{0,6} + 3 R{0,11} + 3 R{0,23} + 3 R{2,0}
   + 3 R{2,1} + 3 R{2,6} + 3 R{2,7} + 3 R{2,8} + 3 R{2,9} + 3 R{2,14}
   + 3 R{2,17} + 3 R{2,18} + 3 R{2,20} + 3 R{2,21} + 3 R{2,22} + 3 R{2,24}
   + 3 R{2,26} + 3 R{2,29} + 3 R{2,30} + 3 R{2,33} + 3 R{2,36} + 3 R{3,5}
   + 3 R{3,6} + 3 R{3,13} + 3 R{3,16} + 3 R{3,27} + 3 R{4,4} + 3 R{6,6}
   + 3 R{6,7} + 3 R{6,8} + 3 R{6,9} + 3 R{6,11} + 3 R{6,15} + 3 R{6,21}
   + 3 R{6,25} + 3 R{6,43} <= 3
 R2_68: 6 R{0,9} + 6 R{0,20} + 6 R{4,1} + 6 R{4,5} + 6 R{4,6} + 6 R{4,13}
   + 6 R{4,21} + 6 R{4,24} + 6 R{4,25} + 6 R{4,30} + 6 R{4,33} + 6 R{4,34}
   + 6 R{4,35} + 6 R{4,37} + 6 R{6,8} + 6 R{6,11} + 6 R{6,19} <= 6
 R2_69: 7 R{0,16} + 7 R{0,17} + 7 R{0,26} + 7 R{0,27} + 7 R{1,3} + 7 R{1,9}
   + 7 R{1,10} + 7 R{1,13} + 7 R{1,15} + 7 R{1,19} + 7 R{1,21} + 7 R{4,1}
   + 7 R{4,2} + 7 R{4,3} + 7 R{4,5} + 7 R{4,6} + 7 R{4,7} + 7 R{4,8}
   + 7 R{4,9} + 7 R{4,11} + 7 R{4,12} + 7 R{4,13} + 7 R{4,15} + 7 R{4,16}
   + 7 R{4,19} + 7 R{4,20} + 7 R{4,21} + 7 R{4,22} + 7 R{4,23} + 7 R{4,24}
   + 7 R{4,25} + 7 R{4,26} + 7 R{4,29} + 7 R{4,30} + 7 R{4,31} + 7 R{4,32}
   + 7 R{4,33} + 7 R{4,34} + 7 R{4,36} + 7 R{4,37} <= 7
 R2_70: 11 R{6,1} + 11 R{6,2} + 11 R{6,3} + 11 R{6,4} + 11 R{6,6}
   + 11 R{6,7} + 11 R{6,9} + 11 R{6,13} + 11 R{6,14} + 11 R{6,15}
   + 11 R{6,17} + 11 R{6,21} + 11 R{6,22} + 11 R{6,23} + 11 R{6,24}
   + 11 R{6,35} + 11 R{6,37} + 11 R{6,38} + 11 R{6,40} + 11 R{6,43} <= 11
 R2_71: 7 R{0,11} + 7 R{0,12} + 7 R{0,13} + 7 R{0,15} + 7 R{0,21}
   + 7 R{0,25} + 7 R{3,1} + 7 R{3,2} + 7 R{3,3} + 7 R{3,5} + 7 R{3,6}
   + 7 R{3,7} + 7 R{3,8} + 7 R{3,10} + 7 R{3,15} + 7 R{3,16} + 7 R{3,19}
   + 7 R{3,22} + 7 R{3,26} + 7 R{3,30} + 7 R{3,31} + 7 R{3,32} + 7 R{3,34}
   + 7 R{3,35} + 7 R{6,2} + 7 R{6,3} + 7 R{6,5} + 7 R{6,7} + 7 R{6,10}
   + 7 R{6,12} + 7 R{6,13} + 7 R{6,16} + 7 R{6,20} + 7 R{6,24} + 7 R{6,27}
   + 7 R{6,31} + 7 R{6,37} + 7 R{6,39} + 7 R{6,43} <= 7
 R2_72: <= 0
 R2_73: 11 R{0,11} + 11 R{0,12} + 11 R{0,13} + 11 R{0,15} + 11 R{0,16}
   + 11 R{0,17} + 11 R{0,21} + 11 R{0,22} + 11 R{0,24} + 11 R{0,25}
   + 11 R{0,26} + 11 R{0,27} <= 11
 R2_74: 5 R{5,1} + 5 R{5,2} + 5 R{5,3} + 5 R{5,4} + 5 R{5,5} + 5 R{5,6}
   + 5 R{5,10} + 5 R{5,12} + 5 R{5,16} + 5 R{5,18} <= 5
 R2_75: 8 R{0,16} + 8 R{0,17} + 8 R{0,26} + 8 R{0,27} + 8 R{6,1} + 8 R{6,2}
   + 8 R{6,3} + 8 R{6,4} + 8 R{6,5} + 8 R{6,6} + 8 R{6,7} + 8 R{6,9}
   + 8 R{6,10} + 8 R{6,12} + 8 R{6,13} + 8 R{6,14} + 8 R{6,15} + 8 R{6,16}
   + 8 R{6,17} + 8 R{6,18} + 8 R{6,20} + 8 R{6,21} + 8 R{6,22} + 8 R{6,23}
   + 8 R{6,24} + 8 R{6,26} + 8 R{6,27} + 8 R{6,28} + 8 R{6,29} + 8 R{6,30}
   + 8 R{6,31} + 8 R{6,32} + 8 R{6,33} + 8 R{6,34} + 8 R{6,35} + 8 R{6,36}
   + 8 R{6,37} + 8 R{6,38} + 8 R{6,39} + 8 R{6,40} + 8 R{6,41} + 8 R{6,42}
   + 8 R{6,43} <= 8
 R2_76: 12 R{0,4} + 12 R{1,5} + 12 R{3,3} + 12 R{3,8} + 12 R{3,12}
   + 12 R{3,15} + 12 R{3,17} + 12 R{3,21} + 12 R{3,23} + 12 R{3,24}
   + 12 R{3,26} + 12 R{3,32} + 12 R{3,34} + 12 R{3,35} <= 12
 R2_77: 7 R{0,7} + 7 R{0,8} + 7 R{0,9} + 7 R{0,10} + 7 R{0,14} + 7 R{0,18}
   + 7 R{0,19} + 7 R{0,20} + 7 R{1,2} + 7 R{1,4} + 7 R{1,6} + 7 R{1,7}
   + 7 R{1,14} + 7 R{1,18} + 7 R{2,4} + 7 R{2,5} + 7 R{2,31} + 7 R{3,5}
   + 7 R{3,6} + 7 R{3,9} + 7 R{3,11} + 7 R{3,12} + 7 R{3,16} + 7 R{3,27}
   + 7 R{3,29} + 7 R{3,30} + 7 R{3,36} + 7 R{3,37} + 7 R{4,2} + 7 R{4,8}
   + 7 R{4,9} + 7 R{6,3} + 7 R{6,4} + 7 R{6,6} + 7 R{6,7} + 7 R{6,8}
   + 7 R{6,10} + 7 R{6,12} + 7 R{6,14} + 7 R{6,15} + 7 R{6,16} + 7 R{6,18}
   + 7 R{6,21} + 7 R{6,24} + 7 R{6,26} + 7 R{6,30} + 7 R{6,33} + 7 R{6,37}
   + 7 R{6,39} + 7 R{6,41} + 7 R{6,43} <= 7
Bounds
End
